50
1000
297
288
285
281
279
275
274
269
268
268
267
266
262
250
244
243
241
241
238
230
229
226
220
219
218
203
202
201
201
201
189
188
188
188
180
180
179
176
162
158
156
150
146
120
116
112
111
109
104
102
